
  22   10
  10   10   10   10   10   10   10   10   10   10

   0   0   0   0   0   0   0   0   0   0   0   1 2 
   6   0   0   0   0   0   0   0  10   0   0   1 3 
   8   0   0   0   0  10   0   0   0   0   0   1 4 
   1   0   0   0   0   0  10   0   0   0   0   1 5 
   4   0  10   0   0   0   0   0   0   0   0   1 6 
   5   0   0   0   0   0   0  10   0   0   0   1 7 
   8   0   0   0   0   0   0  10   0   0   0   1 8 
   1   0   0   0   0   0   0   0   0  10   0   1 9 
   1   0   0  10   0   0   0   0   0   0   0   1 10 
   8   0   0   0   0  10   0   0   0   0   0   1 11 
   7   0   0   0  10   0   0   0   0   0   0   1 12 
   3   0   0   0  10   0   0   0   0   0   0   1 13 
   8   0  10   0   0   0   0   0   0   0   0   2 18 14 
   8  10   0   0   0   0   0   0   0   0   0   1 15 
   1   0  10   0   0   0   0   0   0   0   0   2 20 16 
   7   0   0  10   0   0   0   0   0   0   0   1 17 
   8   0   0   0   0   0   0  10   0   0   0   1 19 
   2  10   0   0   0   0   0   0   0   0   0   1 19 
   1   0   0   0  10   0   0   0   0   0   0   1 21 
   3   0   0   0   0   0   0   0  10   0   0   1 21 
   1   0   0  10   0   0   0   0   0   0   0   1 22
   0   0   0   0   0   0   0   0   0   0   0   0 
